Q:[														
30000 30000 30000	30000	30000	50000	50000	50000 100000 100000									
]														
														
q:[														
0														
5000														
5000														
5000														
5000														
5000														
5000														
5000														
5000														
5000														
5000														
5000														
10000														
10000														
10000														
10000														
10000														
10000														
10000														
10000														
10000														
10000														
20000														
20000														
20000														
30000														
500														
500														
500														
500														
500														
500														
500														
500														
500														
500														
500														
1000														
1000														
1000														
1000														
1000														
1000														
1000														
1000														
1000														
1000														
2000														
2000														
2000														
3000]														
														
L:[
30000	30000	30000	30000	30000	25000	25000	25000	25000	25000	20000	20000	20000	20000	20000
30000	30000	30000	30000	30000	25000	25000	25000	25000	25000	20000	20000	20000	20000	20000
30000	30000	30000	30000	30000	25000	25000	25000	25000	25000	20000	20000	20000	20000	20000
30000	30000	30000	30000	30000	25000	25000	25000	25000	25000	20000	20000	20000	20000	20000
30000	30000	30000	30000	30000	50000	50000	50000	50000	50000	60000	60000	60000	60000	60000
30000	30000	30000	30000	30000	50000	50000	50000	50000	50000	60000	60000	60000	60000	60000
30000	30000	30000	30000	30000	50000	50000	50000	50000	50000	60000	60000	60000	60000	60000
30000	30000	30000	30000	30000	50000	50000	50000	50000	50000	60000	60000	60000	60000	60000
30000	30000	30000	30000	30000	50000	50000	50000	50000	50000	60000	60000	60000	60000	60000
30000	30000	30000	30000	30000	50000	50000	50000	50000	50000	60000	60000	60000	60000	60000
30000	30000	30000	30000	30000	50000	50000	50000	50000	50000	60000	60000	60000	60000	60000
30000	30000	30000	30000	30000	50000	50000	50000	50000	50000	60000	60000	60000	60000	60000
30000	30000	30000	30000	30000	50000	50000	50000	50000	50000	80000	80000	80000	80000	80000
30000	30000	30000	30000	30000	50000	50000	50000	50000	50000	80000	80000	80000	80000	80000
30000	30000	30000	30000	30000	50000	50000	50000	50000	50000	80000	80000	80000	80000	80000
30000	30000	30000	30000	30000	50000	50000	50000	50000	50000	80000	80000	80000	80000	80000
30000	30000	30000	30000	30000	50000	50000	50000	50000	50000	80000	80000	80000	80000	80000
30000	30000	30000	30000	30000	50000	50000	50000	50000	50000	100000	100000	100000	100000	100000
30000	30000	30000	30000	30000	50000	50000	50000	50000	50000	100000	100000	100000	100000	100000
30000	30000	30000	30000	30000	50000	50000	50000	50000	50000	100000	100000	100000	100000	100000
30000	30000	30000	30000	30000	50000	50000	50000	50000	50000	100000	100000	100000	100000	100000
30000	30000	30000	30000	30000	50000	50000	50000	50000	50000	100000	100000	100000	100000	100000
30000	30000	30000	30000	30000	50000	50000	50000	50000	50000	100000	100000	100000	100000	100000
30000	30000	30000	30000	30000	50000	50000	50000	50000	50000	100000	100000	100000	100000	100000
30000	30000	30000	30000	30000	50000	50000	50000	50000	50000	100000	100000	100000	100000	100000
30000	30000	30000	30000	30000	25000	25000	25000	25000	25000	20000	20000	20000	20000	20000
30000	30000	30000	30000	30000	25000	25000	25000	25000	25000	20000	20000	20000	20000	20000
30000	30000	30000	30000	30000	25000	25000	25000	25000	25000	20000	20000	20000	20000	20000
30000	30000	30000	30000	30000	25000	25000	25000	25000	25000	20000	20000	20000	20000	20000
30000	30000	30000	30000	30000	50000	50000	50000	50000	50000	60000	60000	60000	60000	60000
30000	30000	30000	30000	30000	50000	50000	50000	50000	50000	60000	60000	60000	60000	60000
30000	30000	30000	30000	30000	50000	50000	50000	50000	50000	60000	60000	60000	60000	60000
30000	30000	30000	30000	30000	50000	50000	50000	50000	50000	60000	60000	60000	60000	60000
30000	30000	30000	30000	30000	50000	50000	50000	50000	50000	60000	60000	60000	60000	60000
30000	30000	30000	30000	30000	50000	50000	50000	50000	50000	60000	60000	60000	60000	60000
30000	30000	30000	30000	30000	50000	50000	50000	50000	50000	60000	60000	60000	60000	60000
30000	30000	30000	30000	30000	50000	50000	50000	50000	50000	60000	60000	60000	60000	60000
30000	30000	30000	30000	30000	50000	50000	50000	50000	50000	80000	80000	80000	80000	80000
30000	30000	30000	30000	30000	50000	50000	50000	50000	50000	80000	80000	80000	80000	80000
30000	30000	30000	30000	30000	50000	50000	50000	50000	50000	80000	80000	80000	80000	80000
30000	30000	30000	30000	30000	50000	50000	50000	50000	50000	80000	80000	80000	80000	80000
30000	30000	30000	30000	30000	50000	50000	50000	50000	50000	80000	80000	80000	80000	80000
30000	30000	30000	30000	30000	50000	50000	50000	50000	50000	100000	100000	100000	100000	100000
30000	30000	30000	30000	30000	50000	50000	50000	50000	50000	100000	100000	100000	100000	100000
30000	30000	30000	30000	30000	50000	50000	50000	50000	50000	100000	100000	100000	100000	100000
30000	30000	30000	30000	30000	50000	50000	50000	50000	50000	100000	100000	100000	100000	100000
30000	30000	30000	30000	30000	50000	50000	50000	50000	50000	100000	100000	100000	100000	100000
30000	30000	30000	30000	30000	50000	50000	50000	50000	50000	100000	100000	100000	100000	100000
30000	30000	30000	30000	30000	50000	50000	50000	50000	50000	100000	100000	100000	100000	100000
30000	30000	30000	30000	30000	50000	50000	50000	50000	50000	100000	100000	100000	100000	100000
]														
														
coord:[														
0	0													
83	77
20	24
11	11
5	92
2	54
95	93
10	28
18	80
69	60
62	97
89	9
55	52
12	2
73	39
98	25
46	59
5	4
14	30
46	83
88	66
75	0
71	23
43	57
32	84
59	26
49	97
37	51
96	25
5	32
33	4
67	9
40	35
85	48
59	48
46	37
80	22
63	77
62	20
98	19
12	8
46	62
41	4
20	50
40	98
46	8
7	48
4	91
7	28
61	50
38	82


]													
														
														
c:[1 1 1 1 1 1.3 1.3 1.3 1.3 1.3 2 2 2 2 2 ]														
														
														
r:[ 
2	2	2	2	2	3	3	3	3	3	5	5	5	5	5
2	2	2	2	2	3	3	3	3	3	5	5	5	5	5
2	2	2	2	2	3	3	3	3	3	5	5	5	5	5
2	2	2	2	2	3	3	3	3	3	5	5	5	5	5
2	2	2	2	2	3	3	3	3	3	5	5	5	5	5
2	2	2	2	2	3	3	3	3	3	5	5	5	5	5
2	2	2	2	2	3	3	3	3	3	5	5	5	5	5
2	2	2	2	2	3	3	3	3	3	5	5	5	5	5
2	2	2	2	2	3	3	3	3	3	5	5	5	5	5
2	2	2	2	2	3	3	3	3	3	5	5	5	5	5
2	2	2	2	2	3	3	3	3	3	5	5	5	5	5
5	5	5	5	5	7	7	7	7	7	10	10	10	10	10
5	5	5	5	5	7	7	7	7	7	10	10	10	10	10
5	5	5	5	5	7	7	7	7	7	10	10	10	10	10
5	5	5	5	5	7	7	7	7	7	10	10	10	10	10
5	5	5	5	5	7	7	7	7	7	10	10	10	10	10
5	5	5	5	5	7	7	7	7	7	10	10	10	10	10
5	5	5	5	5	7	7	7	7	7	10	10	10	10	10
5	5	5	5	5	7	7	7	7	7	10	10	10	10	10
5	5	5	5	5	7	7	7	7	7	10	10	10	10	10
5	5	5	5	5	7	7	7	7	7	10	10	10	10	10
7	7	7	7	7	10	10	10	10	10	12	12	12	12	12
7	7	7	7	7	10	10	10	10	10	12	12	12	12	12
7	7	7	7	7	10	10	10	10	10	12	12	12	12	12
9	9	9	9	9	12	12	12	12	12	15	15	15	15	15
2	2	2	2	2	3	3	3	3	3	5	5	5	5	5
2	2	2	2	2	3	3	3	3	3	5	5	5	5	5
2	2	2	2	2	3	3	3	3	3	5	5	5	5	5
2	2	2	2	2	3	3	3	3	3	5	5	5	5	5
2	2	2	2	2	3	3	3	3	3	5	5	5	5	5
2	2	2	2	2	3	3	3	3	3	5	5	5	5	5
2	2	2	2	2	3	3	3	3	3	5	5	5	5	5
2	2	2	2	2	3	3	3	3	3	5	5	5	5	5
2	2	2	2	2	3	3	3	3	3	5	5	5	5	5
2	2	2	2	2	3	3	3	3	3	5	5	5	5	5
2	2	2	2	2	3	3	3	3	3	5	5	5	5	5
5	5	5	5	5	7	7	7	7	7	10	10	10	10	10
5	5	5	5	5	7	7	7	7	7	10	10	10	10	10
5	5	5	5	5	7	7	7	7	7	10	10	10	10	10
5	5	5	5	5	7	7	7	7	7	10	10	10	10	10
5	5	5	5	5	7	7	7	7	7	10	10	10	10	10
5	5	5	5	5	7	7	7	7	7	10	10	10	10	10
5	5	5	5	5	7	7	7	7	7	10	10	10	10	10
5	5	5	5	5	7	7	7	7	7	10	10	10	10	10
5	5	5	5	5	7	7	7	7	7	10	10	10	10	10
5	5	5	5	5	7	7	7	7	7	10	10	10	10	10
7	7	7	7	7	10	10	10	10	10	12	12	12	12	12
7	7	7	7	7	10	10	10	10	10	12	12	12	12	12
7	7	7	7	7	10	10	10	10	10	12	12	12	12	12
9	9	9	9	9	12	12	12	12	12	15	15	15	15	15
]														
